\ Model Cloudlet-VM Allocation
\ LP format - for model browsing. Use MPS format to capture full model detail.
Maximize
  110 allocate[c1,v1] + 103 allocate[c1,v2] + 100 allocate[c1,v3]
   + 116 allocate[c1,v4] + 100 allocate[c1,v5] + 102 allocate[c1,v6]
   + 118 allocate[c1,v7] + 111 allocate[c1,v8] + 86 allocate[c1,v9]
   + 83 allocate[c1,v10] + 87 allocate[c1,v11] + 107 allocate[c1,v12]
   + 118 allocate[c1,v13] + 99 allocate[c1,v14] + 111 allocate[c1,v15]
   + 107 allocate[c1,v16] + 94 allocate[c1,v17] + 91 allocate[c1,v18]
   + 96 allocate[c1,v19] + 114 allocate[c1,v20] + 109 allocate[c1,v21]
   + 120 allocate[c1,v22] + 91 allocate[c1,v23] + 110 allocate[c1,v24]
   + 81 allocate[c1,v25] + 107 allocate[c1,v26] + 109 allocate[c1,v27]
   + 105 allocate[c1,v28] + 105 allocate[c1,v29] + 99 allocate[c1,v30]
   + 119 allocate[c1,v31] + 112 allocate[c1,v32] + 85 allocate[c1,v33]
   + 108 allocate[c1,v34] + 85 allocate[c1,v35] + 98 allocate[c1,v36]
   + 93 allocate[c1,v37] + 80 allocate[c1,v38] + 90 allocate[c1,v39]
   + 90 allocate[c1,v40]
Subject To
 storage[c1]: 493297 allocate[c1,v1] + 562552 allocate[c1,v2]
   + 499276 allocate[c1,v3] + 525320 allocate[c1,v4]
   + 478967 allocate[c1,v5] + 533725 allocate[c1,v6]
   + 536504 allocate[c1,v7] + 510872 allocate[c1,v8]
   + 562737 allocate[c1,v9] + 486843 allocate[c1,v10]
   + 535655 allocate[c1,v11] + 562108 allocate[c1,v12]
   + 498222 allocate[c1,v13] + 570194 allocate[c1,v14]
   + 537176 allocate[c1,v15] + 537508 allocate[c1,v16]
   + 565952 allocate[c1,v17] + 493829 allocate[c1,v18]
   + 548512 allocate[c1,v19] + 864843 allocate[c1,v20]
   + 804978 allocate[c1,v21] + 715938 allocate[c1,v22]
   + 722955 allocate[c1,v23] + 726033 allocate[c1,v24]
   + 793324 allocate[c1,v25] + 795882 allocate[c1,v26]
   + 862460 allocate[c1,v27] + 813343 allocate[c1,v28]
   + 784764 allocate[c1,v29] + 810917 allocate[c1,v30]
   + 840429 allocate[c1,v31] + 793916 allocate[c1,v32]
   + 853762 allocate[c1,v33] + 865060 allocate[c1,v34]
   + 708938 allocate[c1,v35] + 803852 allocate[c1,v36]
   + 824587 allocate[c1,v37] + 861442 allocate[c1,v38]
   + 795402 allocate[c1,v39] + 855046 allocate[c1,v40] <= 1.6777216e+07
 CPU[c1]: 1820 allocate[c1,v1] + 2022 allocate[c1,v2]
   + 1810 allocate[c1,v3] + 1875 allocate[c1,v4] + 1983 allocate[c1,v5]
   + 1839 allocate[c1,v6] + 1849 allocate[c1,v7] + 1872 allocate[c1,v8]
   + 1822 allocate[c1,v9] + 2013 allocate[c1,v10] + 2151 allocate[c1,v11]
   + 1998 allocate[c1,v12] + 2111 allocate[c1,v13] + 1949 allocate[c1,v14]
   + 1931 allocate[c1,v15] + 2090 allocate[c1,v16] + 1888 allocate[c1,v17]
   + 2026 allocate[c1,v18] + 2124 allocate[c1,v19] + 3006 allocate[c1,v20]
   + 3088 allocate[c1,v21] + 2919 allocate[c1,v22] + 2886 allocate[c1,v23]
   + 3202 allocate[c1,v24] + 3208 allocate[c1,v25] + 3271 allocate[c1,v26]
   + 3199 allocate[c1,v27] + 3014 allocate[c1,v28] + 3150 allocate[c1,v29]
   + 2880 allocate[c1,v30] + 3160 allocate[c1,v31] + 3170 allocate[c1,v32]
   + 3049 allocate[c1,v33] + 3001 allocate[c1,v34] + 2709 allocate[c1,v35]
   + 2938 allocate[c1,v36] + 2882 allocate[c1,v37] + 2862 allocate[c1,v38]
   + 2774 allocate[c1,v39] + 3144 allocate[c1,v40] <= 3234
 RAM[c1]: 57 allocate[c1,v1] + 67 allocate[c1,v2] + 59 allocate[c1,v3]
   + 63 allocate[c1,v4] + 66 allocate[c1,v5] + 60 allocate[c1,v6]
   + 70 allocate[c1,v7] + 61 allocate[c1,v8] + 65 allocate[c1,v9]
   + 63 allocate[c1,v10] + 63 allocate[c1,v11] + 69 allocate[c1,v12]
   + 70 allocate[c1,v13] + 69 allocate[c1,v14] + 66 allocate[c1,v15]
   + 59 allocate[c1,v16] + 59 allocate[c1,v17] + 68 allocate[c1,v18]
   + 59 allocate[c1,v19] + 105 allocate[c1,v20] + 91 allocate[c1,v21]
   + 102 allocate[c1,v22] + 87 allocate[c1,v23] + 104 allocate[c1,v24]
   + 88 allocate[c1,v25] + 88 allocate[c1,v26] + 93 allocate[c1,v27]
   + 87 allocate[c1,v28] + 89 allocate[c1,v29] + 86 allocate[c1,v30]
   + 87 allocate[c1,v31] + 98 allocate[c1,v32] + 99 allocate[c1,v33]
   + 91 allocate[c1,v34] + 99 allocate[c1,v35] + 98 allocate[c1,v36]
   + 92 allocate[c1,v37] + 93 allocate[c1,v38] + 92 allocate[c1,v39]
   + 100 allocate[c1,v40] <= 1024
Bounds
Binaries
 allocate[c1,v1] allocate[c1,v2] allocate[c1,v3] allocate[c1,v4]
 allocate[c1,v5] allocate[c1,v6] allocate[c1,v7] allocate[c1,v8]
 allocate[c1,v9] allocate[c1,v10] allocate[c1,v11] allocate[c1,v12]
 allocate[c1,v13] allocate[c1,v14] allocate[c1,v15] allocate[c1,v16]
 allocate[c1,v17] allocate[c1,v18] allocate[c1,v19] allocate[c1,v20]
 allocate[c1,v21] allocate[c1,v22] allocate[c1,v23] allocate[c1,v24]
 allocate[c1,v25] allocate[c1,v26] allocate[c1,v27] allocate[c1,v28]
 allocate[c1,v29] allocate[c1,v30] allocate[c1,v31] allocate[c1,v32]
 allocate[c1,v33] allocate[c1,v34] allocate[c1,v35] allocate[c1,v36]
 allocate[c1,v37] allocate[c1,v38] allocate[c1,v39] allocate[c1,v40]
End
